c Random generated cnf formula, satisfiable: false
p cnf 10 50
8 -5 4 0
-6 4 5 0
-5 7 8 0
9 -3 1 0
9 -7 -8 0
3 10 -2 0
7 6 2 0
7 1 6 0
3 2 4 0
-3 -6 -7 0
-8 -7 2 0
-9 7 3 0
8 5 7 0
-7 6 10 0
-7 1 9 0
-3 1 -4 0
-2 -1 -10 0
2 -5 4 0
6 2 7 0
10 3 -5 0
-2 -8 3 0
-7 9 1 0
-10 3 9 0
-3 8 -1 0
-4 -8 -6 0
6 2 -5 0
-8 -1 -4 0
-6 3 1 0
10 -5 6 0
1 5 6 0
-2 -7 -5 0
-6 -9 -2 0
-6 9 -5 0
7 3 6 0
3 -5 -7 0
4 -3 -2 0
4 8 -9 0
-4 2 -6 0
6 -5 7 0
-7 -5 -1 0
5 1 9 0
-2 10 -1 0
4 -10 7 0
-10 5 7 0
9 -2 1 0
-7 6 -1 0
-3 2 7 0
8 3 -4 0
8 -10 -1 0
6 -10 -4 0
